WARNING: for repeatability, setting FPU to use double precision
============================[ Problem Statistics ]=============================
|                                                                             |
|  Number of variables:            50                                         |
|  Number of clauses:             218                                         |
|  Parse time:                   0.00 s                                       |
|                                                                             |
============================[ Search Statistics ]==============================
| Conflicts |          ORIGINAL         |          LEARNT          | Progress |
|           |    Vars  Clauses Literals |    Limit  Clauses Lit/Cl |          |
===============================================================================
===============================================================================
restarts              : 1
conflicts             : 44             (328358 /sec)
decisions             : 50             (0.00 % random) (373134 /sec)
propagations          : 628            (4686567 /sec)
conflict literals     : 129            (28.33 % deleted)
Memory used           : 20.00 MB
CPU time              : 0.000134 s

UNSATISFIABLE
